d1 = 1;
d2 = 1;
c1 = 100000;
c2 = 100000;
c3 = 100000;

Nodes = array1d(1..36,[1,2,3,4,5,6,7,8,9,10,11,12,13,14,15,16,17,18,19,20,21,22,23,24,25,26,27,28,29,30,31,32,33,34,35,36]);

Link_info = array2d(1..120, 1..4,[1, 2, d1, c1, 2, 1, d1, c1, 1, 7, d1, c1, 7, 1, d1, c1, 2, 3, d1, c1, 3, 2, d1, c1, 2, 8, d1, c1, 8, 2, d1, c1, 3, 4, d1, c1, 4, 3, d1, c1, 3, 9, d1, c1, 9, 3, d1, c1, 4, 5, d1, c1, 5, 4, d1, c1, 4, 10, d1, c1, 10, 4, d1, c1, 5, 6, d1, c1, 6, 5, d1, c1, 5, 11, d1, c1, 11, 5, d1, c1, 6, 12, d1, c1, 12, 6, d1, c1, 7, 8, d1, c1, 8, 7, d1, c1, 7, 13, d1, c1, 13, 7, d1, c1, 8, 9, d1, c1, 9, 8, d1, c1, 8, 14, d1, c1, 14, 8, d1, c1, 9, 10, d1, c1, 10, 9, d1, c1, 9, 15, d1, c1, 15, 9, d1, c1, 10, 11, d1, c1, 11, 10, d1, c1, 10, 16, d1, c1, 16, 10, d1, c1, 11, 12, d1, c1, 12, 11, d1, c1, 11, 17, d1, c1, 17, 11, d1, c1, 12, 18, d1, c1, 18, 12, d1, c1, 13, 14, d1, c1, 14, 13, d1, c1, 13, 19, d1, c1, 19, 13, d1, c1, 14, 15, d1, c1, 15, 14, d1, c1, 14, 20, d1, c1, 20, 14, d1, c1, 15, 16, d1, c1, 16, 15, d1, c1, 15, 21, d1, c1, 21, 15, d1, c1, 16, 17, d1, c1, 17, 16, d1, c1, 16, 22, d1, c1, 22, 16, d1, c1, 17, 18, d1, c1, 18, 17, d1, c1, 17, 23, d1, c1, 23, 17, d1, c1, 18, 24, d1, c1, 24, 18, d1, c1, 19, 20, d1, c1, 20, 19, d1, c1, 19, 25, d1, c1, 25, 19, d1, c1, 20, 21, d1, c1, 21, 20, d1, c1, 20, 26, d1, c1, 26, 20, d1, c1, 21, 22, d1, c1, 22, 21, d1, c1, 21, 27, d1, c1, 27, 21, d1, c1, 22, 23, d1, c1, 23, 22, d1, c1, 22, 28, d1, c1, 28, 22, d1, c1, 23, 24, d1, c1, 24, 23, d1, c1, 23, 29, d1, c1, 29, 23, d1, c1, 24, 30, d1, c1, 30, 24, d1, c1, 25, 26, d1, c1, 26, 25, d1, c1, 25, 31, d1, c1, 31, 25, d1, c1, 26, 27, d1, c1, 27, 26, d1, c1, 26, 32, d1, c1, 32, 26, d1, c1, 27, 28, d1, c1, 28, 27, d1, c1, 27, 33, d1, c1, 33, 27, d1, c1, 28, 29, d1, c1, 29, 28, d1, c1, 28, 34, d1, c1, 34, 28, d1, c1, 29, 30, d1, c1, 30, 29, d1, c1, 29, 35, d1, c1, 35, 29, d1, c1, 30, 36, d1, c1, 36, 30, d1, c1, 31, 32, d1, c1, 32, 31, d1, c1, 32, 33, d1, c1, 33, 32, d1, c1, 33, 34, d1, c1, 34, 33, d1, c1, 34, 35, d1, c1, 35, 34, d1, c1, 35, 36, d1, c1, 36, 35, 1, c1]);


Flow_demands = [1,1,1,1,1,1,1,1,1,1];
s = [1,1,1,1,1,1,1,1,1,1];
t = [36,36,36,36,36,36,36,36,36,36];
Limits = [50,50,50,50,50,50,50,50,50,50];